\ENCODING=ISO-8859-1
\Problem name: ilog.cplex

Minimize
 obj1: 0.4 n_0
Subject To
 xi_0,1:          - x_1 + 520 a_0,1 + x_0 + 200 lx_0 + 200 wx_0 + 50 hx_0
                  <= 520
 xk_0,1:          x_1 - x_0 + 520 b_0,1 + 200 lx_1 + 200 wx_1 + 50 hx_1 <= 520
 yi_0,1:          - y_1 + 500 c_0,1 + y_0 + 200 ly_0 + 200 wy_0 + 50 hy_0
                  <= 500
 yk_0,1:          y_1 - y_0 + 500 d_0,1 + 200 ly_1 + 200 wy_1 + 50 hy_1 <= 500
 zi_0,1:          - z_1 + 520 r_0,1 + z_0 + 200 lz_0 + 200 wz_0 + 50 hz_0
                  <= 520
 zk_0,1:          z_1 - z_0 + 520 f_0,1 + 200 lz_1 + 200 wz_1 + 50 hz_1 <= 520
 xi_0,2:          x_0 + 200 lx_0 + 200 wx_0 + 50 hx_0 - x_2 + 520 a_0,2 <= 520
 xk_0,2:          - x_0 + x_2 + 520 b_0,2 + 200 lx_2 + 40 wx_2 + 110 hx_2
                  <= 520
 yi_0,2:          y_0 + 200 ly_0 + 200 wy_0 + 50 hy_0 - y_2 + 500 c_0,2 <= 500
 yk_0,2:          - y_0 + y_2 + 500 d_0,2 + 200 ly_2 + 40 wy_2 + 110 hy_2
                  <= 500
 zi_0,2:          z_0 + 200 lz_0 + 200 wz_0 + 50 hz_0 - z_2 + 520 r_0,2 <= 520
 zk_0,2:          - z_0 + z_2 + 520 f_0,2 + 200 lz_2 + 40 wz_2 + 110 hz_2
                  <= 520
 xi_0,3:          x_0 + 200 lx_0 + 200 wx_0 + 50 hx_0 - x_3 + 520 a_0,3 <= 520
 xk_0,3:          - x_0 + x_3 + 520 b_0,3 + 10 lx_3 + 10 wx_3 + 10 hx_3 <= 520
 yi_0,3:          y_0 + 200 ly_0 + 200 wy_0 + 50 hy_0 - y_3 + 500 c_0,3 <= 500
 yk_0,3:          - y_0 + y_3 + 500 d_0,3 + 10 ly_3 + 10 wy_3 + 10 hy_3 <= 500
 zi_0,3:          z_0 + 200 lz_0 + 200 wz_0 + 50 hz_0 - z_3 + 520 r_0,3 <= 520
 zk_0,3:          - z_0 + z_3 + 520 f_0,3 + 10 lz_3 + 10 wz_3 + 10 hz_3 <= 520
 xi_1,2:          x_1 + 200 lx_1 + 200 wx_1 + 50 hx_1 - x_2 + 520 a_1,2 <= 520
 xk_1,2:          - x_1 + x_2 + 200 lx_2 + 40 wx_2 + 110 hx_2 + 520 b_1,2
                  <= 520
 yi_1,2:          y_1 + 200 ly_1 + 200 wy_1 + 50 hy_1 - y_2 + 500 c_1,2 <= 500
 yk_1,2:          - y_1 + y_2 + 200 ly_2 + 40 wy_2 + 110 hy_2 + 500 d_1,2
                  <= 500
 zi_1,2:          z_1 + 200 lz_1 + 200 wz_1 + 50 hz_1 - z_2 + 520 r_1,2 <= 520
 zk_1,2:          - z_1 + z_2 + 200 lz_2 + 40 wz_2 + 110 hz_2 + 520 f_1,2
                  <= 520
 xi_1,3:          x_1 + 200 lx_1 + 200 wx_1 + 50 hx_1 - x_3 + 520 a_1,3 <= 520
 xk_1,3:          - x_1 + x_3 + 10 lx_3 + 10 wx_3 + 10 hx_3 + 520 b_1,3 <= 520
 yi_1,3:          y_1 + 200 ly_1 + 200 wy_1 + 50 hy_1 - y_3 + 500 c_1,3 <= 500
 yk_1,3:          - y_1 + y_3 + 10 ly_3 + 10 wy_3 + 10 hy_3 + 500 d_1,3 <= 500
 zi_1,3:          z_1 + 200 lz_1 + 200 wz_1 + 50 hz_1 - z_3 + 520 r_1,3 <= 520
 zk_1,3:          - z_1 + z_3 + 10 lz_3 + 10 wz_3 + 10 hz_3 + 520 f_1,3 <= 520
 xi_2,3:          x_2 + 200 lx_2 + 40 wx_2 + 110 hx_2 - x_3 + 520 a_2,3 <= 520
 xk_2,3:          - x_2 + x_3 + 10 lx_3 + 10 wx_3 + 10 hx_3 + 520 b_2,3 <= 520
 yi_2,3:          y_2 + 200 ly_2 + 40 wy_2 + 110 hy_2 - y_3 + 500 c_2,3 <= 500
 yk_2,3:          - y_2 + y_3 + 10 ly_3 + 10 wy_3 + 10 hy_3 + 500 d_2,3 <= 500
 zi_2,3:          z_2 + 200 lz_2 + 40 wz_2 + 110 hz_2 - z_3 + 520 r_2,3 <= 520
 zk_2,3:          - z_2 + z_3 + 10 lz_3 + 10 wz_3 + 10 hz_3 + 520 f_2,3 <= 520
 c37:             x_0 + 100 lx_0 + 100 wx_0 + 25 hx_0 - L_0 + 1000 s_0,0
                  <= 1000
 c38:             y_0 + 100 ly_0 + 100 wy_0 + 25 hy_0 + 1000 s_0,0 - W_0
                  <= 1000
 c39:             z_0 + 100 lz_0 + 100 wz_0 + 25 hz_0 + 1000 s_0,0 - H_0
                  <= 1000
 position_,0,0,1: a_0,1 + b_0,1 + c_0,1 + d_0,1 + r_0,1 + f_0,1 - s_0,0 - s_1,0
                  >= -1
 position_,0,0,2: a_0,2 + b_0,2 + c_0,2 + d_0,2 + r_0,2 + f_0,2 - s_0,0 - s_2,0
                  >= -1
 position_,0,0,3: a_0,3 + b_0,3 + c_0,3 + d_0,3 + r_0,3 + f_0,3 - s_0,0 - s_3,0
                  >= -1
 position_,1,0,2: a_1,2 + b_1,2 + c_1,2 + d_1,2 + r_1,2 + f_1,2 - s_1,0 - s_2,0
                  >= -1
 position_,1,0,3: a_1,3 + b_1,3 + c_1,3 + d_1,3 + r_1,3 + f_1,3 - s_1,0 - s_3,0
                  >= -1
 position_,2,0,3: a_2,3 + b_2,3 + c_2,3 + d_2,3 + r_2,3 + f_2,3 - s_2,0 - s_3,0
                  >= -1
 bag_and_box0:    s_0,0  = 1
 bag_and_box1:    s_1,0  = 1
 bag_and_box2:    s_2,0  = 1
 bag_and_box3:    s_3,0  = 1
 bagUsed_0:       s_0,0 + s_1,0 + s_2,0 + s_3,0 - 5 n_0 <= 0
 length_0,0:      x_0 + 200 lx_0 + 200 wx_0 + 50 hx_0 - L_0 + 520 s_0,0 <= 520
 width_0,0:       y_0 + 200 ly_0 + 200 wy_0 + 50 hy_0 + 500 s_0,0 - W_0 <= 500
 height_0,0:      z_0 + 200 lz_0 + 200 wz_0 + 50 hz_0 + 520 s_0,0 - H_0 <= 520
 length_1,0:      x_1 + 200 lx_1 + 200 wx_1 + 50 hx_1 - L_0 + 520 s_1,0 <= 520
 width_1,0:       y_1 + 200 ly_1 + 200 wy_1 + 50 hy_1 - W_0 + 500 s_1,0 <= 500
 height_1,0:      z_1 + 200 lz_1 + 200 wz_1 + 50 hz_1 - H_0 + 520 s_1,0 <= 520
 length_2,0:      x_2 + 200 lx_2 + 40 wx_2 + 110 hx_2 - L_0 + 520 s_2,0 <= 520
 width_2,0:       y_2 + 200 ly_2 + 40 wy_2 + 110 hy_2 - W_0 + 500 s_2,0 <= 500
 height_2,0:      z_2 + 200 lz_2 + 40 wz_2 + 110 hz_2 - H_0 + 520 s_2,0 <= 520
 length_3,0:      x_3 + 10 lx_3 + 10 wx_3 + 10 hx_3 - L_0 + 520 s_3,0 <= 520
 width_3,0:       y_3 + 10 ly_3 + 10 wy_3 + 10 hy_3 - W_0 + 500 s_3,0 <= 500
 height_3,0:      z_3 + 10 lz_3 + 10 wz_3 + 10 hz_3 - H_0 + 520 s_3,0 <= 520
 c63:             lx_0 + ly_0 + lz_0  = 1
 c64:             wx_0 + wy_0 + wz_0  = 1
 c65:             hx_0 + hy_0 + hz_0  = 1
 c66:             lx_0 + wx_0 + hx_0  = 1
 c67:             ly_0 + wy_0 + hy_0  = 1
 c68:             lz_0 + wz_0 + hz_0  = 1
 c69:             lx_1 + ly_1 + lz_1  = 1
 c70:             wx_1 + wy_1 + wz_1  = 1
 c71:             hx_1 + hy_1 + hz_1  = 1
 c72:             lx_1 + wx_1 + hx_1  = 1
 c73:             ly_1 + wy_1 + hy_1  = 1
 c74:             lz_1 + wz_1 + hz_1  = 1
 c75:             lx_2 + ly_2 + lz_2  = 1
 c76:             wx_2 + wy_2 + wz_2  = 1
 c77:             hx_2 + hy_2 + hz_2  = 1
 c78:             lx_2 + wx_2 + hx_2  = 1
 c79:             ly_2 + wy_2 + hy_2  = 1
 c80:             lz_2 + wz_2 + hz_2  = 1
 c81:             lx_3 + ly_3 + lz_3  = 1
 c82:             wx_3 + wy_3 + wz_3  = 1
 c83:             hx_3 + hy_3 + hz_3  = 1
 c84:             lx_3 + wx_3 + hx_3  = 1
 c85:             ly_3 + wy_3 + hy_3  = 1
 c86:             lz_3 + wz_3 + hz_3  = 1
 transformX_0:    L_0 + H_0 <= 370
 transformY_0:    W_0 + H_0 <= 330
Bounds
 0 <= x_1 <= 370
 0 <= a_0,1 <= 1
 0 <= x_0 <= 370
 0 <= lx_0 <= 1
 0 <= wx_0 <= 1
 0 <= hx_0 <= 1
      b_0,1 = 0
 0 <= lx_1 <= 1
 0 <= wx_1 <= 1
 0 <= hx_1 <= 1
 0 <= y_1 <= 370
 0 <= c_0,1 <= 1
 0 <= y_0 <= 370
 0 <= ly_0 <= 1
 0 <= wy_0 <= 1
 0 <= hy_0 <= 1
      d_0,1 = 0
 0 <= ly_1 <= 1
 0 <= wy_1 <= 1
 0 <= hy_1 <= 1
 0 <= z_1 <= 370
 0 <= r_0,1 <= 1
 0 <= z_0 <= 370
 0 <= lz_0 <= 1
 0 <= wz_0 <= 1
 0 <= hz_0 <= 1
      f_0,1 = 0
 0 <= lz_1 <= 1
 0 <= wz_1 <= 1
 0 <= hz_1 <= 1
 0 <= x_2 <= 370
 0 <= a_0,2 <= 1
 0 <= b_0,2 <= 1
 0 <= lx_2 <= 1
 0 <= wx_2 <= 1
 0 <= hx_2 <= 1
 0 <= y_2 <= 370
 0 <= c_0,2 <= 1
 0 <= d_0,2 <= 1
 0 <= ly_2 <= 1
 0 <= wy_2 <= 1
 0 <= hy_2 <= 1
 0 <= z_2 <= 370
 0 <= r_0,2 <= 1
 0 <= f_0,2 <= 1
 0 <= lz_2 <= 1
 0 <= wz_2 <= 1
 0 <= hz_2 <= 1
 0 <= x_3 <= 370
 0 <= a_0,3 <= 1
 0 <= b_0,3 <= 1
 0 <= lx_3 <= 1
 0 <= wx_3 <= 1
 0 <= hx_3 <= 1
 0 <= y_3 <= 370
 0 <= c_0,3 <= 1
 0 <= d_0,3 <= 1
 0 <= ly_3 <= 1
 0 <= wy_3 <= 1
 0 <= hy_3 <= 1
 0 <= z_3 <= 370
 0 <= r_0,3 <= 1
 0 <= f_0,3 <= 1
 0 <= lz_3 <= 1
 0 <= wz_3 <= 1
 0 <= hz_3 <= 1
 0 <= a_1,2 <= 1
 0 <= b_1,2 <= 1
 0 <= c_1,2 <= 1
 0 <= d_1,2 <= 1
 0 <= r_1,2 <= 1
 0 <= f_1,2 <= 1
 0 <= a_1,3 <= 1
 0 <= b_1,3 <= 1
 0 <= c_1,3 <= 1
 0 <= d_1,3 <= 1
 0 <= r_1,3 <= 1
 0 <= f_1,3 <= 1
 0 <= a_2,3 <= 1
 0 <= b_2,3 <= 1
 0 <= c_2,3 <= 1
 0 <= d_2,3 <= 1
 0 <= r_2,3 <= 1
 0 <= f_2,3 <= 1
 0 <= L_0 <= 370
 0 <= s_0,0 <= 1
 0 <= W_0 <= 370
 0 <= H_0 <= 370
 0 <= s_1,0 <= 1
 0 <= s_2,0 <= 1
 0 <= s_3,0 <= 1
 0 <= n_0 <= 1
Generals
 a_0,1  lx_0  wx_0  hx_0  b_0,1  lx_1  wx_1  hx_1  c_0,1  ly_0  wy_0  hy_0 
 d_0,1  ly_1  wy_1  hy_1  r_0,1  lz_0  wz_0  hz_0  f_0,1  lz_1  wz_1  hz_1 
 a_0,2  b_0,2  lx_2  wx_2  hx_2  c_0,2  d_0,2  ly_2  wy_2  hy_2  r_0,2  f_0,2 
 lz_2  wz_2  hz_2  a_0,3  b_0,3  lx_3  wx_3  hx_3  c_0,3  d_0,3  ly_3  wy_3 
 hy_3  r_0,3  f_0,3  lz_3  wz_3  hz_3  a_1,2  b_1,2  c_1,2  d_1,2  r_1,2 
 f_1,2  a_1,3  b_1,3  c_1,3  d_1,3  r_1,3  f_1,3  a_2,3  b_2,3  c_2,3  d_2,3 
 r_2,3  f_2,3  s_0,0  s_1,0  s_2,0  s_3,0  n_0 
End
